50, 11238
925, 924
949, 948
893, 891
84, 84
593, 591
424, 423
531, 531
131, 129
192, 192
445, 444
222, 222
456, 456
25, 24
86, 84
711, 711
422, 420
513, 513
735, 735
359, 357
58, 57
784, 783
590, 588
658, 657
621, 621
971, 969
363, 363
760, 759
369, 369
573, 573
661, 660
315, 315
86, 84
475, 474
718, 717
591, 591
448, 447
643, 642
183, 183
179, 177
324, 324
816, 816
196, 195
115, 114
99, 99
39, 39
276, 276
573, 573
821, 819
331, 330
370, 369
